Running MiniSat on FULL_RUN_MINISAT\07c50b89d97a55b6e1629999a445a2ba-ctl_4201_555_unsat_pre.cnf... 
============================[ Problem Statistics ]=============================
|                                                                             |
|  Number of variables:         14756                                         |
|  Number of clauses:          141683                                         |
|  Parse time:                   0.27 s                                       |
|                                                                             |
============================[ Search Statistics ]==============================
| Conflicts |          ORIGINAL         |          LEARNT          | Progress |
|           |    Vars  Clauses Literals |    Limit  Clauses Lit/Cl |          |
===============================================================================
|       100 |   14756   141683   478920 |    51950      100     31 |  0.000 % |
|       250 |   14756   141683   478920 |    57145      250     23 |  0.000 % |
|       475 |   14756   141683   478920 |    62860      475     21 |  0.000 % |
|       812 |   14756   141683   478920 |    69146      812     19 |  0.000 % |
|      1318 |   14756   141683   478920 |    76060     1318     18 |  0.000 % |
|      2077 |   14756   141683   478920 |    83666     2077     18 |  0.000 % |
|      3216 |   14756   141683   478920 |    92033     3216     18 |  0.000 % |
|      4924 |   14756   141683   478920 |   101236     4924     17 |  0.000 % |
|      7486 |   14756   141683   478920 |   111360     7486     16 |  0.000 % |
|     11330 |   14756   141683   478920 |   122496    11330     16 |  0.000 % |
|     17096 |   14756   141683   478920 |   134746    17096     16 |  0.000 % |
Finished MiniSat on FULL_RUN_MINISAT\07c50b89d97a55b6e1629999a445a2ba-ctl_4201_555_unsat_pre.cnf 
Running MiniSat on FULL_RUN_MINISAT\07e6413459f92b613498a719125b6239-j3037_10_mdd_bm1.cnf... 